3432
6789
1469
8027
3001
8919
4060
5182
1582
6902
3083
2636
3122
2152
9293
7435
3281
2615
8117
8460
4498
9416
5794
2353
2223
6634
5488
3458
648
3657
2264
5101
5620
2606
1216
551
801
3894
9525
6293
1580
7099
8603
5764
9534
9180
9894
551
5482
3162
4313
